% seed = 0

mint = 8;
% maxt = 17;

nActs = 9;
dur = [0,3,3,1,2,2,3,3,0];

nSkills = 8;
sreq = [| 0,0,0,0,0,0,0,0,
	| 0,1,0,1,2,1,0,0,
	| 2,1,0,0,1,1,0,0,
	| 1,2,0,0,1,1,0,0,
	| 1,0,0,0,0,1,3,0,
	| 1,1,1,0,1,0,0,0,
	| 2,0,1,0,0,0,1,0,
	| 0,1,0,0,1,1,0,1,
	| 0,0,0,0,0,0,0,0, |];

% SumOfsreq = 32;

nResources = 10;
mastery = [| false,true,false,true,true,true,true,true,
	| true,false,true,false,true,true,true,true,
	| true,true,false,true,true,true,true,false,
	| true,false,true,true,false,true,true,false,
	| false,true,true,false,true,true,true,false,
	| false,true,true,false,true,true,false,true,
	| true,true,true,true,false,false,true,false,
	| false,false,false,true,false,true,true,true,
	| false,true,false,false,true,true,false,true,
	| false,false,true,true,true,true,false,false, |];

nPrecs = 11;
pred = [1,1,1,2,3,3,4,5,6,7,8];
succ = [2,3,8,9,4,6,5,9,7,9,9];

nUnrels = 15;
unpred = [2,2,2,2,2,2,3,4,4,4,5,5,5,6,7];
unsucc = [3,4,5,6,7,8,8,6,7,8,6,7,8,8,8];

USEFUL_RES = [{},
	{1,2,3,4,5,6,7,8,9,10},
	{1,2,3,4,5,6,7,8,9,10},
	{1,2,3,4,5,6,7,8,9,10},
	{1,2,3,4,5,6,7,8,9,10},
	{1,2,3,4,5,6,7,9,10},
	{1,2,3,4,5,6,7,8,10},
	{1,2,3,4,5,6,7,8,9,10},
	{}];

POTENTIAL_ACT = [{2,3,4,5,6,7,8},
	{2,3,4,5,6,7,8},
	{2,3,4,5,6,7,8},
	{2,3,4,5,6,7,8},
	{2,3,4,5,6,7,8},
	{2,3,4,5,6,7,8},
	{2,3,4,5,6,7,8},
	{2,3,4,5,7,8},
	{2,3,4,5,6,8},
	{2,3,4,5,6,7,8}];
